p edge 640 2620
c 12651
e 0 290 1 0
e 0 431 1 1
e 0 404 1 2
e 0 318 1 3
e 0 116 1 4
e 0 152 2 5
e 0 209 1 6
e 0 273 1 7
e 0 545 1 9
e 1 484 1 11
e 1 515 1 12
e 1 587 36 13
e 1 43 1 14
e 1 622 13 15
e 2 496 1 16
e 2 357 1 17
e 2 463 8 19
e 2 51 1 20
e 2 263 1 21
e 2 272 1 22
e 2 436 1 23
e 3 326 1 25
e 3 296 1 26
e 3 581 1 27
e 3 320 1 31
e 4 631 1 33
e 4 227 1 34
e 4 260 1 35
e 4 82 1 36
e 4 180 1 37
e 4 191 6 38
e 4 229 1 39
e 5 563 2 41
e 5 495 1 43
e 5 17 20 45
e 6 86 35 48
e 6 275 1 51
e 6 525 1 52
e 7 454 1 53
e 7 602 2 54
e 7 129 33 55
e 7 516 1 56
e 7 273 1 57
e 7 569 1 59
e 7 585 1 60
e 8 309 27 61
e 8 243 1 62
e 8 399 1 63
e 8 548 33 64
e 8 76 1 66
e 8 198 2 67
e 8 333 2 68
e 8 485 1 69
e 9 386 1 72
e 9 415 1 74
e 11 572 2 79
e 11 112 3 80
e 11 322 2 81
e 11 306 1 82
e 11 113 9 83
e 11 120 1 84
e 11 393 1 85
e 11 556 1 86
e 11 609 1 88
e 12 430 1 89
e 12 610 1 96
e 13 460 1 97
e 13 213 1 98
e 13 403 1 99
e 13 164 2 100
e 13 310 1 102
e 13 521 1 103
e 13 583 1 104
e 14 311 1 106
e 14 502 1 107
e 14 112 2 109
e 14 147 2 110
e 14 176 1 111
e 14 478 1 112
e 14 587 3 113
e 15 393 1 116
e 15 594 1 117
e 15 29 1 118
e 15 378 1 119
e 16 622 41 120
e 16 334 2 121
e 16 494 1 122
e 16 20 1 124
e 16 186 1 125
e 16 314 1 126
e 17 197 28 127
e 17 112 46 128
e 17 447 35 129
e 17 578 17 130
e 17 21 3 131
e 17 65 7 132
e 17 83 14 133
e 17 119 37 134
e 18 464 6 137
e 18 96 49 139
e 18 113 39 140
e 18 179 2 141
e 18 202 44 142
e 18 255 45 143
e 19 403 1 145
e 19 634 2 147
e 19 205 1 148
e 19 182 1 149
e 20 220 1 153
e 20 562 1 155
e 21 619 2 156
e 21 285 2 157
e 21 46 1 158
e 21 227 1 159
e 21 231 1 160
e 21 441 1 161
e 21 608 1 163
e 21 632 1 164
e 23 66 37 171
e 23 547 23 172
e 23 546 38 174
e 23 500 7 175
e 23 70 9 176
e 23 145 13 177
e 23 518 28 179
e 24 221 1 180
e 24 452 1 181
e 24 100 1 182
e 24 162 1 183
e 24 389 1 184
e 24 477 1 185
e 24 526 1 187
e 25 473 1 190
e 25 40 39 192
e 25 58 18 193
e 26 508 38 197
e 26 337 19 198
e 26 65 18 200
e 26 178 26 201
e 26 367 48 203
e 26 462 14 205
e 26 503 8 206
e 27 467 1 207
e 27 451 7 209
e 27 269 2 210
e 27 517 1 211
e 28 279 1 214
e 28 294 1 217
e 29 479 1 221
e 29 131 1 222
e 29 405 1 223
e 29 447 1 225
e 29 511 1 226
e 30 125 5 228
e 30 430 1 229
e 30 426 1 230
e 30 173 2 232
e 30 481 1 233
e 31 126 1 234
e 31 491 1 235
e 31 416 1 236
e 31 250 1 237
e 31 44 1 238
e 31 53 1 239
e 31 136 2 240
e 31 244 1 241
e 31 428 1 242
e 31 537 9 244
e 32 544 19 247
e 32 566 8 248
e 32 192 1 249
e 32 475 1 251
e 32 524 1 252
e 33 106 1 253
e 33 285 2 254
e 33 527 2 255
e 33 159 2 256
e 33 269 2 257
e 33 352 1 258
e 33 356 1 259
e 33 414 2 260
e 34 169 1 261
e 34 108 1 262
e 34 598 1 263
e 34 354 1 264
e 34 311 1 266
e 34 418 1 267
e 35 262 2 268
e 35 488 1 271
e 35 356 1 273
e 35 422 2 274
e 35 459 1 275
e 36 247 1 276
e 36 562 1 277
e 36 588 1 278
e 36 132 1 280
e 36 385 1 281
e 36 628 2 282
e 37 238 1 283
e 37 52 2 287
e 37 179 1 288
e 37 248 1 290
e 37 278 46 291
e 37 316 1 292
e 38 63 1 293
e 38 593 1 294
e 38 427 25 295
e 38 448 1 296
e 38 98 1 297
e 38 107 1 298
e 38 126 1 299
e 38 239 1 300
e 38 424 1 301
e 39 482 1 303
e 39 622 28 304
e 39 251 10 305
e 39 105 1 307
e 39 137 2 308
e 39 459 1 309
e 39 563 1 310
e 40 451 5 312
e 40 114 32 313
e 40 500 15 314
e 40 607 43 315
e 40 111 40 316
e 40 101 22 318
e 40 115 3 319
e 41 583 1 321
e 42 130 2 325
e 42 279 2 326
e 42 602 1 327
e 42 59 2 328
e 42 375 1 329
e 42 600 1 331
e 42 620 1 332
e 43 345 11 333
e 43 303 28 334
e 43 622 35 335
e 43 191 41 336
e 43 235 19 337
e 43 281 35 339
e 43 527 2 340
e 44 110 1 342
e 44 476 1 343
e 44 62 2 344
e 44 505 1 345
e 45 631 1 347
e 45 92 1 348
e 45 150 1 349
e 45 396 27 350
e 45 456 1 352
e 46 435 49 353
e 46 153 3 355
e 46 501 1 358
e 46 568 40 360
e 47 279 1 361
e 47 559 1 362
e 47 597 1 363
e 47 439 2 364
e 47 312 1 365
e 47 515 2 367
e 48 417 8 371
e 48 238 1 372
e 48 118 2 373
e 48 163 3 374
e 48 597 2 376
e 49 404 2 377
e 49 216 3 378
e 49 223 1 379
e 49 338 33 383
e 49 375 2 384
e 49 452 2 385
e 50 153 7 386
e 50 313 37 387
e 50 523 30 389
e 50 237 41 390
e 50 115 6 391
e 50 413 4 392
e 50 609 15 395
e 51 223 2 397
e 51 144 1 398
e 51 138 1 399
e 51 547 40 400
e 52 107 1 402
e 52 312 1 403
e 52 494 1 404
e 52 237 3 405
e 53 320 1 407
e 53 167 1 408
e 53 559 1 411
e 54 291 2 415
e 55 100 1 417
e 55 140 1 418
e 55 561 1 419
e 55 275 1 420
e 55 103 1 421
e 55 487 1 422
e 56 295 1 426
e 56 537 47 430
e 57 235 47 432
e 57 114 12 433
e 57 191 4 435
e 57 224 2 436
e 57 279 35 437
e 57 348 20 438
e 57 547 30 439
e 58 636 20 442
e 58 191 37 443
e 58 413 17 446
e 58 619 18 447
e 58 637 42 448
e 59 351 1 449
e 59 412 1 450
e 59 419 1 452
e 59 288 1 454
e 59 527 1 455
e 60 190 1 456
e 60 114 1 457
e 60 540 4 459
e 60 62 1 460
e 60 109 1 461
e 60 401 19 462
e 60 402 2 463
e 61 624 1 465
e 61 317 1 466
e 61 309 7 469
e 61 428 1 470
e 61 595 1 471
e 62 193 6 472
e 62 165 1 473
e 62 181 1 474
e 62 239 3 475
e 62 315 1 476
e 62 340 2 477
e 62 590 2 478
e 63 590 1 479
e 63 452 1 481
e 63 334 1 484
e 64 235 1 485
e 64 428 1 491
e 64 467 1 492
e 64 631 1 493
e 65 201 49 494
e 65 577 21 495
e 65 74 17 497
e 65 323 34 498
e 65 150 34 499
e 65 537 38 501
e 66 328 1 502
e 66 450 1 505
e 66 293 1 506
e 66 585 1 507
e 67 520 2 509
e 67 250 1 510
e 67 97 1 511
e 68 564 1 513
e 68 101 1 514
e 68 125 47 516
e 68 203 1 517
e 68 213 1 518
e 68 426 1 519
e 69 515 1 520
e 69 268 1 521
e 69 467 1 522
e 70 479 2 525
e 70 525 1 526
e 70 553 1 527
e 70 89 2 528
e 70 121 2 529
e 70 151 1 530
e 70 225 1 531
e 70 515 1 532
e 71 620 1 534
e 71 139 1 537
e 71 281 41 539
e 72 165 1 545
e 72 548 39 550
e 72 634 2 551
e 73 252 1 553
e 73 131 1 556
e 74 217 46 557
e 74 168 40 558
e 74 88 12 559
e 74 579 28 560
e 74 191 14 561
e 74 95 44 562
e 74 133 33 563
e 74 369 6 564
e 75 527 1 566
e 75 87 1 569
e 75 346 1 570
e 76 434 1 572
e 76 467 1 574
e 76 570 1 575
e 77 366 39 577
e 77 335 2 579
e 77 394 19 580
e 77 323 23 581
e 77 237 34 582
e 77 104 2 583
e 77 327 2 584
e 77 547 43 585
e 78 107 4 586
e 78 406 3 587
e 78 360 33 588
e 78 124 6 590
e 78 455 17 593
e 78 568 20 595
e 79 533 1 596
e 79 366 1 597
e 79 577 1 598
e 79 253 1 599
e 79 304 1 600
e 79 323 16 601
e 79 453 1 602
e 80 537 35 606
e 80 143 26 608
e 80 246 1 609
e 81 493 2 612
e 81 288 1 613
e 82 450 1 615
e 82 427 26 618
e 82 193 40 619
e 82 285 2 620
e 83 378 1 622
e 83 113 22 623
e 83 217 1 624
e 83 466 1 625
e 83 596 2 626
e 84 359 24 627
e 84 125 4 628
e 84 580 1 629
e 84 278 14 630
e 84 137 47 631
e 84 187 15 632
e 84 275 25 633
e 84 587 25 634
e 84 588 17 635
e 85 219 1 636
e 85 505 1 637
e 85 601 1 639
e 86 287 23 645
e 86 143 24 646
e 86 237 2 647
e 86 443 27 648
e 86 630 37 650
e 87 618 1 651
e 87 541 1 653
e 87 588 2 657
e 87 602 3 658
e 87 628 1 660
e 88 521 1 661
e 88 582 1 663
e 88 251 22 664
e 88 228 1 665
e 88 237 28 666
e 88 544 26 667
e 89 555 1 669
e 89 161 1 671
e 89 295 1 674
e 89 429 48 675
e 89 434 1 676
e 90 318 2 677
e 90 424 1 679
e 90 261 2 680
e 90 368 1 681
e 91 168 16 682
e 91 469 2 683
e 91 174 5 684
e 91 613 1 685
e 92 245 1 689
e 92 409 1 690
e 92 407 34 692
e 92 576 1 696
e 93 256 2 697
e 93 155 2 698
e 93 151 2 699
e 93 362 2 700
e 93 441 1 701
e 94 301 2 703
e 94 370 2 704
e 94 475 1 705
e 94 352 2 707
e 95 358 23 708
e 95 219 21 710
e 95 272 14 711
e 95 123 4 712
e 95 130 19 713
e 95 544 2 714
e 95 568 9 715
e 95 587 25 716
e 96 467 1 717
e 96 321 1 718
e 96 379 1 719
e 97 335 1 722
e 97 216 2 723
e 97 456 1 724
e 97 149 1 725
e 97 151 1 726
e 97 185 1 727
e 97 242 1 728
e 97 324 2 729
e 97 489 1 730
e 98 482 1 733
e 98 553 1 736
e 99 340 1 738
e 99 462 1 740
e 99 145 1 741
e 99 125 20 742
e 99 487 1 743
e 100 228 1 748
e 101 358 34 750
e 101 562 8 751
e 101 598 41 754
e 101 622 43 755
e 101 630 24 756
e 102 183 2 757
e 102 594 2 758
e 102 254 1 759
e 102 155 1 761
e 102 442 2 762
e 102 465 2 763
e 102 503 1 764
e 102 520 1 765
e 102 528 1 766
e 102 539 1 767
e 102 617 3 768
e 102 634 1 769
e 103 629 1 771
e 103 314 2 773
e 104 272 2 775
e 104 261 1 776
e 104 114 1 777
e 104 415 3 779
e 105 394 35 782
e 105 153 44 783
e 105 375 1 784
e 106 611 2 785
e 106 576 2 786
e 106 566 13 787
e 106 559 1 788
e 107 407 5 791
e 107 117 2 793
e 108 631 2 797
e 108 211 1 798
e 108 607 19 799
e 108 523 31 800
e 109 588 1 802
e 109 444 1 803
e 109 428 2 804
e 109 212 1 805
e 109 280 1 807
e 109 331 12 808
e 110 389 1 811
e 110 396 32 814
e 111 125 36 818
e 111 426 45 819
e 111 123 32 820
e 111 235 37 822
e 111 410 7 823
e 112 400 2 826
e 112 333 2 827
e 112 216 1 828
e 112 233 1 829
e 112 558 2 832
e 113 554 39 833
e 113 319 14 834
e 113 332 19 835
e 113 237 47 836
e 114 467 1 838
e 114 493 1 839
e 114 544 3 840
e 114 234 1 841
e 114 549 1 843
e 115 217 2 844
e 115 265 1 846
e 115 410 2 847
e 116 178 1 850
e 116 214 1 852
e 116 503 1 854
e 117 618 1 855
e 117 438 1 856
e 117 252 1 857
e 117 181 1 858
e 117 367 2 859
e 117 559 2 860
e 118 432 1 862
e 118 458 1 863
e 118 464 1 864
e 118 168 4 865
e 118 332 47 866
e 118 612 2 868
e 119 512 2 869
e 119 601 1 870
e 119 588 1 871
e 119 221 1 872
e 119 230 1 873
e 119 394 34 876
e 119 532 30 877
e 120 485 1 878
e 120 277 1 879
e 120 527 2 880
e 120 151 2 881
e 120 169 1 882
e 120 303 3 883
e 120 366 1 884
e 120 483 1 885
e 121 144 1 888
e 121 122 43 890
e 122 161 13 892
e 122 197 16 895
e 122 237 29 896
e 122 250 22 897
e 122 449 18 899
e 122 488 39 900
e 122 508 17 901
e 123 297 28 902
e 123 540 25 904
e 123 134 19 905
e 124 165 14 909
e 124 210 14 910
e 124 287 7 911
e 124 301 32 912
e 124 149 41 913
e 124 156 43 914
e 124 237 1 915
e 124 471 39 917
e 125 442 44 919
e 125 443 6 920
e 125 496 7 923
e 125 603 5 924
e 126 628 1 927
e 127 469 1 928
e 127 461 1 929
e 127 200 1 931
e 128 501 1 936
e 128 230 1 938
e 129 174 36 940
e 129 271 7 941
e 129 150 9 942
e 129 315 7 943
e 129 427 13 945
e 129 465 28 946
e 129 470 26 947
e 129 627 8 949
e 130 395 2 950
e 130 595 1 951
e 130 616 2 952
e 130 172 2 953
e 130 183 1 954
e 130 195 1 955
e 130 444 2 957
e 131 330 1 958
e 131 197 1 959
e 131 365 1 960
e 132 607 30 962
e 132 534 2 963
e 132 184 1 964
e 132 504 1 966
e 133 434 1 967
e 133 507 2 968
e 133 204 1 971
e 134 451 32 973
e 134 381 43 974
e 134 435 49 977
e 134 153 8 978
e 134 261 15 979
e 134 537 20 981
e 135 525 1 984
e 135 597 1 986
e 135 606 1 987
e 136 315 1 988
e 136 537 15 990
e 136 248 1 992
e 136 530 1 995
e 137 360 1 996
e 138 593 2 999
e 138 219 1 1000
e 138 206 2 1001
e 138 372 1 1002
e 138 493 1 1003
e 139 439 1 1004
e 139 172 1 1005
e 139 474 1 1006
e 139 604 2 1007
e 139 422 2 1008
e 139 616 1 1010
e 140 405 1 1012
e 140 142 1 1015
e 140 354 1 1017
e 140 595 1 1019
e 141 405 1 1020
e 141 312 1 1023
e 142 175 1 1027
e 142 533 1 1028
e 142 422 3 1029
e 142 154 1 1030
e 142 495 2 1031
e 143 429 2 1032
e 143 278 19 1035
e 143 227 49 1036
e 143 290 13 1037
e 143 464 11 1038
e 143 548 36 1039
e 144 457 1 1040
e 144 161 1 1041
e 144 526 1 1043
e 144 145 1 1044
e 144 280 1 1045
e 144 445 1 1046
e 144 613 1 1047
e 145 543 1 1048
e 145 220 1 1049
e 145 519 1 1050
e 145 583 1 1051
e 145 609 1 1052
e 146 288 1 1053
e 146 308 1 1055
e 147 193 27 1058
e 148 387 1 1067
e 148 482 1 1068
e 149 182 1 1070
e 149 464 1 1071
e 149 620 2 1076
e 150 523 17 1077
e 150 601 1 1078
e 151 339 2 1084
e 151 288 1 1085
e 152 212 1 1087
e 152 196 2 1088
e 152 168 16 1089
e 152 354 1 1091
e 153 526 25 1095
e 153 348 34 1096
e 153 570 44 1098
e 154 590 1 1099
e 154 182 1 1101
e 154 208 1 1103
e 154 298 1 1104
e 154 380 39 1105
e 154 389 1 1106
e 154 397 35 1107
e 154 439 2 1108
e 155 443 1 1109
e 155 461 1 1110
e 155 161 1 1112
e 155 275 1 1113
e 156 520 1 1115
e 156 386 1 1116
e 156 348 15 1117
e 157 595 1 1120
e 157 276 1 1122
e 157 295 1 1123
e 157 451 31 1124
e 158 528 1 1127
e 158 193 37 1128
e 158 626 1 1129
e 158 259 1 1130
e 158 305 2 1131
e 158 333 1 1132
e 158 485 1 1133
e 158 612 1 1134
e 160 601 1 1138
e 160 523 36 1142
e 161 373 1 1143
e 161 236 1 1145
e 161 454 1 1146
e 162 427 48 1148
e 162 185 1 1149
e 162 363 1 1151
e 162 396 4 1152
e 163 441 1 1155
e 163 296 1 1156
e 163 203 1 1157
e 163 271 1 1159
e 164 438 2 1161
e 165 255 2 1168
e 165 486 1 1169
e 165 253 1 1171
e 165 339 1 1172
e 165 370 1 1173
e 165 507 1 1174
e 165 539 1 1175
e 166 316 1 1176
e 166 634 2 1177
e 166 248 1 1178
e 166 364 1 1179
e 166 495 1 1180
e 166 500 15 1181
e 167 550 1 1182
e 167 566 24 1183
e 167 325 1 1184
e 167 194 1 1186
e 167 197 1 1187
e 167 241 1 1188
e 167 581 1 1189
e 167 602 1 1190
e 168 352 42 1192
e 168 401 9 1193
e 168 265 19 1195
e 168 406 21 1196
e 168 472 24 1197
e 168 596 47 1198
e 169 540 12 1201
e 170 400 2 1206
e 171 597 1 1209
e 171 463 7 1211
e 171 507 3 1212
e 171 576 1 1213
e 172 576 1 1216
e 173 307 1 1218
e 174 279 3 1221
e 174 562 18 1222
e 174 458 21 1223
e 174 251 38 1226
e 174 303 16 1227
e 174 420 25 1228
e 175 479 2 1231
e 175 220 1 1234
e 176 497 1 1237
e 176 538 1 1239
e 176 614 1 1241
e 177 385 1 1244
e 178 486 1 1245
e 178 442 1 1246
e 178 185 1 1247
e 178 199 1 1248
e 178 454 1 1249
e 179 376 23 1250
e 179 616 1 1251
e 179 238 1 1252
e 179 528 1 1254
e 180 402 1 1255
e 180 262 1 1256
e 180 204 2 1258
e 180 319 1 1260
e 180 426 1 1261
e 180 574 1 1262
e 182 308 1 1265
e 182 363 1 1266
e 182 278 49 1267
e 182 433 1 1268
e 182 437 35 1269
e 183 443 1 1274
e 184 239 1 1276
e 184 390 1 1277
e 184 202 1 1278
e 185 574 1 1279
e 185 207 2 1280
e 185 272 1 1281
e 185 499 1 1282
e 186 520 1 1284
e 186 194 3 1285
e 186 455 1 1286
e 187 424 1 1287
e 187 481 1 1290
e 187 562 2 1292
e 187 624 1 1293
e 188 590 1 1295
e 188 415 1 1297
e 189 400 1 1301
e 189 354 1 1302
e 189 630 43 1303
e 189 401 23 1304
e 189 489 1 1305
e 189 542 1 1306
e 190 238 1 1308
e 191 512 38 1310
e 191 497 37 1311
e 191 523 31 1313
e 192 562 1 1315
e 192 403 1 1316
e 192 492 2 1317
e 192 559 1 1318
e 193 485 42 1322
e 193 503 4 1323
e 194 355 1 1325
e 194 636 1 1326
e 194 341 2 1328
e 194 593 1 1329
e 194 611 3 1330
e 195 273 1 1331
e 195 302 1 1332
e 195 390 1 1333
e 195 228 2 1334
e 195 421 1 1335
e 195 563 2 1336
e 195 601 1 1337
e 196 439 2 1338
e 196 485 1 1339
e 196 600 1 1340
e 197 261 1 1343
e 197 219 1 1344
e 198 447 2 1350
e 198 401 24 1351
e 199 396 28 1355
e 200 462 2 1358
e 200 595 2 1359
e 200 290 1 1360
e 200 329 1 1361
e 201 221 2 1364
e 201 479 1 1367
e 201 541 1 1368
e 202 317 1 1370
e 202 326 2 1371
e 202 378 2 1372
e 202 425 1 1373
e 202 495 1 1374
e 203 599 1 1376
e 203 244 1 1377
e 203 472 1 1378
e 203 627 1 1379
e 203 639 1 1380
e 204 436 1 1381
e 204 423 1 1382
e 204 365 2 1383
e 205 316 2 1385
e 205 218 1 1386
e 205 523 28 1388
e 205 222 1 1389
e 205 386 1 1390
e 205 425 1 1391
e 205 556 1 1392
e 205 586 1 1393
e 205 589 1 1394
e 206 514 2 1395
e 206 373 2 1396
e 207 545 1 1397
e 207 274 1 1398
e 207 320 2 1399
e 207 358 1 1400
e 207 593 1 1401
e 208 606 1 1402
e 208 396 43 1403
e 209 364 1 1404
e 209 549 1 1405
e 209 618 1 1406
e 209 368 1 1407
e 209 634 1 1409
e 210 320 2 1412
e 210 552 1 1414
e 211 403 1 1415
e 211 262 1 1416
e 211 269 1 1417
e 211 439 2 1419
e 212 310 1 1422
e 212 624 1 1423
e 212 463 35 1424
e 212 296 1 1425
e 212 327 1 1426
e 212 353 1 1427
e 212 374 1 1428
e 212 539 1 1431
e 213 312 2 1433
e 213 405 1 1434
e 213 448 1 1436
e 214 631 2 1440
e 214 277 2 1441
e 214 441 1 1442
e 214 359 1 1443
e 215 532 7 1445
e 215 418 1 1448
e 215 592 1 1450
e 216 490 2 1451
e 216 231 2 1452
e 216 268 1 1453
e 216 546 1 1454
e 216 629 1 1455
e 217 403 1 1456
e 217 562 1 1460
e 218 473 1 1461
e 218 372 1 1462
e 218 367 1 1464
e 219 600 1 1468
e 219 507 1 1469
e 219 573 1 1470
e 219 416 1 1471
e 219 454 1 1472
e 219 546 1 1473
e 219 623 1 1474
e 220 582 1 1476
e 220 484 1 1477
e 220 497 1 1478
e 220 568 29 1479
e 220 610 1 1480
e 221 375 3 1481
e 221 634 1 1482
e 221 436 2 1483
e 221 234 2 1484
e 221 241 1 1485
e 221 273 1 1486
e 221 301 3 1487
e 221 328 1 1488
e 221 522 1 1489
e 222 308 2 1494
e 222 318 2 1495
e 222 540 36 1497
e 223 431 2 1499
e 223 439 1 1500
e 223 552 1 1501
e 223 414 1 1502
e 223 443 1 1503
e 224 332 13 1504
e 224 579 1 1505
e 225 469 2 1514
e 225 569 2 1515
e 226 558 1 1517
e 226 451 25 1519
e 226 500 4 1520
e 226 553 2 1521
e 228 464 1 1527
e 228 476 1 1528
e 229 307 1 1530
e 230 584 2 1532
e 230 443 1 1533
e 230 413 33 1535
e 230 478 1 1536
e 231 382 1 1538
e 231 454 1 1539
e 231 326 1 1540
e 231 440 2 1541
e 232 636 1 1543
e 233 556 1 1547
e 233 292 2 1549
e 233 290 1 1550
e 233 291 3 1551
e 233 345 1 1552
e 233 441 1 1553
e 233 638 1 1554
e 234 489 1 1555
e 234 308 1 1556
e 234 410 1 1557
e 234 620 2 1558
e 234 631 1 1559
e 235 520 1 1560
e 235 504 1 1561
e 235 285 1 1562
e 235 538 1 1564
e 236 389 1 1565
e 237 397 45 1571
e 237 281 37 1572
e 238 495 2 1573
e 238 589 1 1575
e 238 338 42 1576
e 238 631 1 1577
e 239 498 1 1578
e 239 619 1 1579
e 239 385 2 1581
e 240 345 1 1584
e 240 522 1 1585
e 240 315 1 1587
e 240 364 1 1589
e 240 417 33 1590
e 240 560 1 1591
e 240 602 1 1592
e 241 343 42 1595
e 241 452 2 1598
e 242 534 1 1601
e 242 309 26 1603
e 242 412 2 1604
e 242 585 1 1605
e 243 431 1 1606
e 243 415 1 1608
e 243 371 1 1609
e 243 361 1 1610
e 243 635 1 1611
e 244 601 1 1613
e 244 359 1 1615
e 244 386 1 1616
e 245 409 1 1618
e 245 457 2 1620
e 245 282 1 1621
e 245 336 1 1622
e 245 548 42 1623
e 245 554 5 1624
e 245 571 1 1625
e 246 393 1 1627
e 247 256 1 1629
e 247 320 2 1632
e 248 575 2 1634
e 248 511 2 1635
e 248 521 1 1636
e 249 566 21 1643
e 250 443 1 1644
e 250 568 48 1645
e 250 411 1 1646
e 250 528 1 1647
e 250 573 2 1648
e 251 315 1 1649
e 251 278 11 1650
e 251 386 49 1652
e 251 518 38 1656
e 252 565 1 1659
e 252 293 1 1660
e 252 551 1 1661
e 253 559 1 1665
e 253 636 1 1666
e 254 428 2 1667
e 254 450 2 1669
e 254 563 1 1670
e 255 565 1 1676
e 255 588 2 1677
e 256 599 1 1679
e 256 535 1 1680
e 256 299 1 1681
e 256 434 1 1682
e 256 317 1 1683
e 256 341 1 1684
e 256 358 1 1685
e 256 373 1 1686
e 256 526 1 1687
e 256 564 1 1688
e 257 443 1 1689
e 257 439 1 1690
e 258 429 28 1695
e 258 541 3 1696
e 258 457 1 1699
e 258 610 2 1700
e 259 312 2 1702
e 259 493 1 1703
e 260 409 1 1706
e 261 457 1 1707
e 261 622 43 1708
e 261 493 2 1709
e 261 267 2 1710
e 264 435 9 1719
e 264 360 1 1720
e 264 538 2 1721
e 264 623 1 1725
e 265 321 1 1726
e 265 577 1 1727
e 266 417 22 1730
e 267 530 1 1733
e 267 386 2 1734
e 267 331 15 1735
e 267 452 1 1736
e 268 497 1 1737
e 268 442 1 1739
e 268 375 1 1740
e 268 408 1 1741
e 269 404 1 1743
e 269 295 2 1744
e 269 412 1 1745
e 269 533 1 1747
e 270 578 35 1751
e 271 338 3 1753
e 271 372 2 1754
e 271 279 1 1755
e 271 394 7 1758
e 272 551 1 1760
e 273 501 1 1762
e 275 394 5 1764
e 275 369 1 1765
e 276 402 1 1767
e 276 470 2 1768
e 276 449 2 1769
e 276 465 1 1770
e 277 295 1 1772
e 277 501 1 1776
e 278 294 16 1777
e 278 405 32 1779
e 278 546 10 1780
e 279 355 1 1781
e 279 483 1 1782
e 279 374 1 1783
e 279 400 2 1784
e 279 433 1 1785
e 279 505 1 1786
e 280 481 1 1788
e 281 386 3 1790
e 281 309 47 1792
e 281 348 16 1793
e 281 565 5 1794
e 282 489 1 1795
e 283 452 1 1798
e 284 463 16 1805
e 284 374 1 1807
e 284 412 1 1808
e 285 467 1 1810
e 286 483 1 1811
e 287 291 2 1817
e 287 464 1 1818
e 287 338 41 1819
e 287 321 1 1820
e 288 594 1 1822
e 288 567 1 1824
e 288 579 1 1825
e 288 585 1 1826
e 289 572 2 1828
e 289 579 1 1829
e 289 624 1 1830
e 291 519 2 1832
e 291 382 1 1833
e 291 367 2 1834
e 291 324 1 1835
e 291 582 2 1836
e 292 614 2 1839
e 293 298 1 1842
e 293 590 1 1844
e 294 379 3 1845
e 294 403 1 1846
e 294 349 2 1847
e 294 431 1 1848
e 294 514 1 1849
e 294 547 46 1850
e 295 460 1 1851
e 295 402 1 1852
e 295 480 1 1853
e 295 550 2 1854
e 296 551 1 1855
e 296 501 1 1856
e 296 408 1 1857
e 296 355 1 1858
e 296 377 1 1859
e 297 385 2 1861
e 298 486 1 1862
e 298 349 1 1863
e 298 525 1 1864
e 298 311 1 1865
e 299 439 1 1866
e 299 380 39 1868
e 299 353 1 1869
e 299 421 1 1870
e 300 338 39 1874
e 300 348 25 1875
e 300 372 1 1876
e 300 404 1 1877
e 300 607 20 1878
e 301 457 1 1880
e 301 631 1 1881
e 302 315 1 1883
e 304 397 28 1887
e 304 407 46 1890
e 304 409 1 1891
e 305 479 2 1894
e 305 430 3 1895
e 305 451 33 1896
e 305 541 1 1898
e 306 307 2 1902
e 307 448 1 1905
e 307 599 1 1906
e 307 354 2 1907
e 307 357 2 1908
e 307 561 2 1909
e 308 516 1 1910
e 308 432 1 1912
e 309 343 33 1914
e 309 323 29 1915
e 309 331 34 1916
e 309 633 15 1917
e 310 563 1 1919
e 311 399 1 1920
e 312 579 1 1922
e 312 406 1 1923
e 312 600 1 1924
e 312 425 2 1925
e 312 628 2 1926
e 313 430 1 1929
e 313 474 2 1930
e 315 345 1 1934
e 315 492 1 1935
e 315 354 3 1936
e 315 366 1 1937
e 315 436 1 1938
e 315 575 1 1939
e 316 442 1 1940
e 316 423 1 1941
e 316 631 2 1942
e 316 335 1 1943
e 317 335 1 1945
e 317 544 12 1946
e 318 612 2 1948
e 318 444 1 1949
e 318 493 1 1950
e 319 579 1 1952
e 319 343 13 1954
e 319 497 1 1955
e 320 385 1 1956
e 320 359 1 1957
e 320 361 1 1958
e 321 376 7 1959
e 321 582 1 1961
e 321 365 1 1962
e 321 415 3 1963
e 322 347 3 1964
e 322 602 1 1965
e 323 455 47 1969
e 323 498 30 1970
e 323 580 1 1971
e 323 598 41 1972
e 323 604 17 1973
e 324 477 1 1974
e 324 463 2 1975
e 324 460 1 1976
e 324 555 1 1977
e 325 510 2 1978
e 325 482 1 1979
e 325 380 12 1980
e 325 420 4 1981
e 326 456 1 1982
e 326 401 43 1983
e 326 393 1 1984
e 328 438 1 1987
e 328 475 1 1989
e 329 412 2 1990
e 329 554 15 1992
e 330 573 1 1994
e 330 415 1 1996
e 330 520 2 1997
e 331 364 49 2000
e 331 394 6 2001
e 331 332 20 2002
e 331 337 21 2003
e 331 348 5 2004
e 331 600 11 2005
e 332 501 2 2006
e 332 338 14 2007
e 332 486 18 2008
e 332 420 15 2009
e 332 622 43 2011
e 333 474 1 2012
e 333 495 2 2013
e 333 348 5 2014
e 333 464 2 2016
e 334 534 2 2017
e 334 570 1 2018
e 334 336 1 2020
e 334 372 1 2021
e 334 388 2 2022
e 334 412 1 2023
e 335 595 1 2025
e 335 353 1 2027
e 335 576 2 2028
e 337 371 1 2032
e 337 614 2 2034
e 338 464 41 2035
e 338 357 47 2036
e 338 429 39 2037
e 338 604 16 2038
e 339 370 1 2039
e 339 400 1 2040
e 340 579 1 2042
e 340 429 17 2043
e 341 499 1 2047
e 342 487 26 2049
e 342 404 10 2050
e 342 500 1 2051
e 342 396 22 2053
e 342 437 39 2054
e 342 532 36 2055
e 342 554 38 2056
e 343 451 13 2057
e 343 595 19 2058
e 343 420 30 2059
e 343 427 40 2060
e 343 430 19 2061
e 343 504 19 2062
e 344 573 1 2064
e 344 555 1 2065
e 344 426 1 2066
e 344 508 1 2067
e 344 541 1 2068
e 345 486 1 2069
e 345 478 1 2070
e 345 620 1 2071
e 345 589 1 2072
e 346 474 2 2075
e 346 606 1 2076
e 347 533 19 2077
e 347 550 17 2078
e 347 376 27 2079
e 347 461 14 2080
e 347 600 11 2082
e 348 518 34 2085
e 349 420 7 2086
e 349 618 1 2087
e 350 554 35 2088
e 350 473 1 2089
e 350 618 1 2090
e 351 450 2 2092
e 351 506 1 2093
e 351 394 13 2094
e 351 382 1 2095
e 352 482 1 2096
e 352 424 1 2097
e 352 477 1 2099
e 353 414 1 2104
e 354 388 3 2105
e 354 483 1 2106
e 356 507 1 2111
e 356 418 1 2112
e 356 450 1 2115
e 356 558 1 2116
e 356 604 1 2117
e 357 384 1 2119
e 357 403 2 2120
e 357 488 1 2121
e 357 565 1 2122
e 358 598 1 2123
e 358 421 1 2124
e 358 610 1 2127
e 359 580 1 2128
e 360 550 2 2130
e 360 636 1 2131
e 360 606 1 2132
e 360 406 1 2133
e 360 542 1 2134
e 361 464 1 2135
e 361 374 1 2136
e 362 376 3 2137
e 362 584 1 2138
e 362 625 1 2140
e 363 469 1 2141
e 363 417 45 2142
e 363 589 1 2144
e 363 598 1 2145
e 364 412 1 2146
e 364 568 4 2147
e 364 499 1 2149
e 364 569 2 2150
e 364 607 2 2151
e 364 611 1 2152
e 366 597 1 2155
e 366 456 1 2158
e 366 601 1 2160
e 367 525 1 2161
e 367 425 1 2162
e 367 543 1 2163
e 367 586 1 2164
e 369 507 1 2168
e 369 388 2 2169
e 370 479 1 2174
e 371 606 1 2178
e 371 596 2 2179
e 371 488 2 2180
e 372 492 1 2181
e 372 591 2 2182
e 373 417 26 2184
e 373 541 1 2185
e 374 540 29 2188
e 374 625 1 2189
e 376 393 26 2190
e 376 402 12 2193
e 376 534 2 2195
e 377 624 1 2197
e 378 463 45 2201
e 378 403 1 2202
e 378 496 2 2203
e 378 625 1 2204
e 379 534 2 2207
e 379 388 1 2208
e 379 622 35 2209
e 380 612 6 2211
e 380 540 29 2214
e 381 415 1 2216
e 381 604 1 2218
e 381 636 2 2220
e 384 572 1 2225
e 385 390 1 2226
e 385 428 2 2227
e 386 419 1 2228
e 386 404 1 2229
e 386 414 1 2230
e 387 480 1 2232
e 387 486 1 2234
e 388 448 1 2235
e 389 551 1 2237
e 389 603 1 2238
e 390 618 1 2240
e 391 448 1 2245
e 391 597 1 2246
e 392 401 22 2247
e 392 583 1 2248
e 392 502 2 2249
e 393 566 45 2254
e 394 437 8 2255
e 394 429 32 2256
e 394 553 25 2257
e 395 456 2 2262
e 396 465 37 2263
e 396 447 17 2264
e 396 530 1 2265
e 396 611 11 2266
e 397 435 20 2269
e 397 518 39 2272
e 398 479 1 2273
e 398 421 1 2274
e 398 450 1 2277
e 399 462 1 2279
e 399 623 1 2280
e 399 608 1 2281
e 400 464 1 2282
e 401 622 35 2283
e 401 526 6 2284
e 403 542 1 2287
e 403 499 2 2288
e 404 575 1 2289
e 404 533 2 2291
e 405 618 3 2292
e 406 629 1 2293
e 406 467 1 2294
e 406 613 1 2295
e 407 512 42 2297
e 407 526 7 2298
e 407 540 1 2299
e 408 412 1 2301
e 408 481 1 2302
e 409 463 19 2304
e 409 428 2 2305
e 409 468 1 2306
e 409 613 1 2307
e 409 630 25 2308
e 411 512 3 2310
e 411 434 1 2311
e 412 446 2 2312
e 412 534 1 2314
e 412 572 1 2315
e 413 489 2 2316
e 413 486 40 2317
e 413 513 43 2318
e 413 547 30 2319
e 415 591 1 2324
e 417 498 11 2326
e 417 585 6 2327
e 417 507 22 2328
e 417 547 6 2329
e 417 562 35 2330
e 418 507 1 2331
e 419 439 1 2335
e 420 452 33 2339
e 420 568 21 2340
e 420 570 34 2341
e 420 587 25 2342
e 421 494 1 2343
e 422 481 1 2345
e 422 558 1 2346
e 424 550 2 2348
e 424 630 40 2349
e 425 448 1 2350
e 426 435 6 2351
e 427 500 7 2354
e 427 532 17 2355
e 427 606 29 2356
e 429 623 26 2358
e 429 435 44 2359
e 429 568 9 2360
e 430 483 2 2361
e 430 577 1 2362
e 430 517 1 2363
e 431 479 2 2365
e 432 479 1 2368
e 433 619 1 2369
e 434 516 1 2370
e 435 568 37 2374
e 437 484 6 2377
e 438 612 1 2379
e 438 615 1 2380
e 438 506 1 2381
e 441 597 1 2382
e 442 499 1 2383
e 442 607 30 2384
e 443 496 1 2385
e 444 461 1 2387
e 444 590 1 2388
e 445 475 1 2389
e 445 489 1 2392
e 446 483 2 2393
e 446 579 1 2394
e 446 504 1 2395
e 447 477 1 2397
e 448 500 20 2398
e 450 561 1 2401
e 451 579 22 2402
e 452 506 1 2403
e 452 573 1 2404
e 453 554 11 2405
e 453 487 1 2407
e 455 593 1 2410
e 456 639 1 2412
e 457 546 1 2413
e 457 573 2 2414
e 457 469 1 2415
e 457 505 1 2416
e 458 578 15 2418
e 459 520 2 2419
e 460 585 1 2420
e 460 468 3 2421
e 460 581 1 2422
e 460 501 1 2423
e 461 510 1 2424
e 461 628 1 2425
e 461 494 1 2426
e 461 552 1 2427
e 461 637 1 2428
e 462 618 1 2429
e 463 537 24 2430
e 463 637 19 2431
e 463 555 26 2432
e 463 581 27 2433
e 464 608 1 2434
e 465 523 6 2435
e 465 483 1 2436
e 468 601 1 2439
e 469 635 1 2442
e 471 525 1 2447
e 471 615 1 2448
e 471 630 11 2449
e 473 631 1 2450
e 473 515 1 2451
e 473 504 1 2452
e 474 496 1 2454
e 474 538 1 2455
e 474 575 1 2456
e 475 520 1 2458
e 475 509 1 2459
e 476 604 1 2460
e 477 536 1 2461
e 478 487 1 2462
e 479 596 1 2464
e 479 524 2 2465
e 480 583 1 2467
e 482 514 2 2468
e 482 597 2 2469
e 483 572 1 2470
e 483 635 2 2471
e 483 638 1 2472
e 484 607 38 2473
e 484 511 1 2474
e 486 492 1 2479
e 486 510 1 2480
e 486 555 1 2481
e 487 534 2 2482
e 488 525 2 2484
e 489 533 1 2485
e 489 594 1 2486
e 491 510 1 2489
e 491 595 1 2490
e 492 514 1 2491
e 492 534 1 2492
e 492 543 1 2493
e 492 560 1 2494
e 493 561 2 2495
e 493 549 1 2496
e 494 604 1 2497
e 494 541 2 2498
e 497 634 1 2500
e 498 583 45 2502
e 498 572 33 2504
e 500 637 9 2507
e 501 514 1 2508
e 501 571 1 2509
e 502 563 2 2510
e 502 526 1 2511
e 504 573 2 2514
e 504 599 1 2515
e 505 634 1 2516
e 506 511 1 2518
e 506 515 1 2519
e 507 585 1 2521
e 508 573 2 2522
e 508 607 4 2524
e 509 613 1 2525
e 509 534 1 2526
e 510 532 47 2527
e 512 544 14 2528
e 514 615 2 2532
e 516 553 2 2535
e 518 544 25 2539
e 518 548 8 2540
e 519 525 1 2541
e 520 596 2 2542
e 520 527 1 2543
e 521 524 1 2544
e 523 614 49 2545
e 524 618 1 2547
e 525 581 1 2548
e 525 602 1 2549
e 530 610 1 2550
e 530 595 1 2551
e 530 636 1 2552
e 532 578 44 2555
e 532 617 17 2556
e 533 606 1 2557
e 534 560 1 2558
e 534 551 1 2559
e 535 618 1 2560
e 538 552 1 2563
e 538 563 1 2564
e 543 624 1 2570
e 547 622 36 2573
e 550 583 2 2575
e 551 570 1 2578
e 552 556 1 2579
e 553 599 1 2580
e 554 575 29 2581
e 557 613 1 2583
e 564 570 1 2586
e 565 567 1 2588
e 566 611 26 2589
e 567 588 1 2592
e 568 578 41 2594
e 571 619 1 2595
e 572 638 1 2597
e 577 582 1 2598
e 577 592 1 2599
e 578 587 45 2600
e 581 597 1 2602
e 581 639 1 2603
e 587 593 33 2605
e 591 598 6 2606
e 592 599 1 2607
e 592 623 1 2608
e 593 596 1 2609
e 593 636 1 2610
e 597 601 2 2612
e 605 623 1 2614
e 606 633 2 2615
e 611 621 1 2616
e 624 633 1 2619
